
;this file is automatically generated: Fri Apr 21 17:59:45 IST 2017

;declarations generated

(declare-fun oclExcludes ( Int Int) Bool )
(declare-fun type_59881142_1c45_4dcb_a205_503f064b1c24_D ( Int) Bool )
(declare-fun type_f3ade023_8a46_4639_b93b_efb044f633dd_C ( Int) Bool )
(declare-fun oclSelect ( Int Bool) Int )
(declare-fun Cardinality ( Int) Int )
(declare-fun obj_8fd81be8_0a33_48de_ba71_86924286334b ( Int) Int )
(declare-fun type_3c98ae84_6eeb_44c9_83c1_ccfff75eb400_A ( Int) Bool )
(declare-fun container_ ( Int) Int )
(declare-fun oclIncludes ( Int Int) Bool )
(declare-fun aux1 () Int )
(declare-fun aux0 () Int )
(declare-fun aux3 () Int )
(declare-fun aux2 () Int )
(declare-fun aux4 () Int )
(declare-fun type_0aca39d2_e8d9_4cf9_9581_3ee809d70b91_B ( Int) Bool )
(declare-fun weight4 () Int )
(declare-fun weight3 () Int )
(declare-fun ObjAt ( Int Int) Int )
(declare-fun weight2 () Int )
(declare-fun weight1 () Int )
(declare-fun weight0 () Int )

;formula(s) generated
(assert (and (>= aux0 0) (<= aux0 1)))
(assert (or (or (forall ((b Int)) (=> (and ( type_0aca39d2_e8d9_4cf9_9581_3ee809d70b91_B b )  ( type_3c98ae84_6eeb_44c9_83c1_ccfff75eb400_A b ) ) (forall ((c Int)) (=> (and ( type_f3ade023_8a46_4639_b93b_efb044f633dd_C c )  ( type_3c98ae84_6eeb_44c9_83c1_ccfff75eb400_A c ) ) (not (= ( obj_8fd81be8_0a33_48de_ba71_86924286334b b )  ( obj_8fd81be8_0a33_48de_ba71_86924286334b c ) ) ))))) (and (= aux0 1) true)) (and (= aux0 0) false)))
(assert (and (=> (= aux0 0) (= weight0 1)) (=> (= aux0 1) (= weight0 0))))
(assert (and (>= aux1 0) (<= aux1 1)))
(assert (and (>= aux2 0) (<= aux2 1)))
(assert (and (>= aux3 0) (<= aux3 1)))
(assert (and (>= aux4 0) (<= aux4 1)))
(assert (or (or (exists ((p Int)) ( type_3c98ae84_6eeb_44c9_83c1_ccfff75eb400_A ( obj_8fd81be8_0a33_48de_ba71_86924286334b p )  ) ) (and (= aux1 1) true)) (and (= aux1 0) false)))
(assert (and (=> (= aux1 0) (= weight1 1)) (=> (= aux1 1) (= weight1 0))))
(assert (or (or (exists ((p Int)) (and ( type_0aca39d2_e8d9_4cf9_9581_3ee809d70b91_B ( obj_8fd81be8_0a33_48de_ba71_86924286334b p )  )  ( type_3c98ae84_6eeb_44c9_83c1_ccfff75eb400_A ( obj_8fd81be8_0a33_48de_ba71_86924286334b p )  ) )) (and (= aux2 1) true)) (and (= aux2 0) false)))
(assert (and (=> (= aux2 0) (= weight2 1)) (=> (= aux2 1) (= weight2 0))))
(assert (or (or (exists ((p Int)) (and ( type_f3ade023_8a46_4639_b93b_efb044f633dd_C ( obj_8fd81be8_0a33_48de_ba71_86924286334b p )  )  ( type_3c98ae84_6eeb_44c9_83c1_ccfff75eb400_A ( obj_8fd81be8_0a33_48de_ba71_86924286334b p )  ) )) (and (= aux3 1) true)) (and (= aux3 0) false)))
(assert (and (=> (= aux3 0) (= weight3 1)) (=> (= aux3 1) (= weight3 0))))
(assert (or (or (exists ((p Int)) (and (and (and ( type_59881142_1c45_4dcb_a205_503f064b1c24_D ( obj_8fd81be8_0a33_48de_ba71_86924286334b p )  )  ( type_3c98ae84_6eeb_44c9_83c1_ccfff75eb400_A ( obj_8fd81be8_0a33_48de_ba71_86924286334b p )  ) ) ( type_0aca39d2_e8d9_4cf9_9581_3ee809d70b91_B ( obj_8fd81be8_0a33_48de_ba71_86924286334b p )  ) ) ( type_f3ade023_8a46_4639_b93b_efb044f633dd_C ( obj_8fd81be8_0a33_48de_ba71_86924286334b p )  ) )) (and (= aux4 1) true)) (and (= aux4 0) false)))
(assert (and (=> (= aux4 0) (= weight4 1)) (=> (= aux4 1) (= weight4 0))))
(assert (= (+ (+ (+ (+ weight0 weight1) weight2) weight3) weight4) 4))
(assert (not (and (and (and (and (= weight0 1) (= weight1 1)) (= weight2 1)) (= weight3 1)) (= weight4 0)) ))
(assert (not (and (and (and (and (= weight0 0) (= weight1 1)) (= weight2 1)) (= weight3 1)) (= weight4 1)) ))
